\ Model mip1
\ LP format - for model browsing. Use MPS format to capture full model detail.
Minimize
  0.539614554261114 f(x_0) + 0.5664369294127365 f(x_1)
   + 0.2921937193069026 f(x_2) + 0.7093840477220608 f(x_3)
   + 0.5937409678680741 f(x_4) + 0.5272490221807185 f(x_5)
   + 0.6967855186960974 f(x_6) + 0.5271798952991056 f(x_7)
   + 0.672893048205996 f(x_8) + 0.7469509423213978 f(x_9)
   + 0.5792117081267185 f(x_10) + 0.6834737891270284 f(x_11)
   + 0.5594564403395454 f(x_12) + 0.4576276994207347 f(x_13)
   + 0.3415029306887639 f(x_14) + 0.651198340906894 f(x_15)
   + 0.6642053203747392 f(x_16) + 0.4033058503895542 f(x_17)
   + 0.5287567561304893 f(x_18) + 0.54982642250068 f(x_19)
   + 0.3256737678672061 f(x_20) + 0.691056990190118 f(x_21)
   + 0.6587381145008155 f(x_22) + 0.5470282203276751 f(x_23)
   + 0.548602841836251 f(x_24) + 0.5920682295459123 f(x_25)
   + 0.5129661822807791 f(x_26) + 0.5594229949766875 f(x_27)
   + 0.2729099014730199 f(x_28) + 0.5485678425359941 f(x_29)
   + 0.7424048718779317 f(x_30) + 0.3253673697967602 f(x_31)
   + 0.5268382102150186 f(x_32) + 0.4694342058469296 f(x_33)
   + 0.6037933076283577 f(x_34) + 0.3837228446422822 f(x_35)
   + 0.5778889834643564 f(x_36) + 0.6992293048073068 f(x_37)
   + 0.4754838594165342 f(x_38) + 0.5814299148880113 f(x_39)
   + 0.5947846223615811 f(x_40) + 0.5296906639481349 f(x_41)
   + 0.6695666807404215 f(x_42) + 0.4272340720974164 f(x_43)
   + 0.739877553877077 f(x_44) + 0.3184233662788479 f(x_45)
   + 0.6509497031736717 f(x_46) + 0.3726349625459935 f(x_47)
   + 0.3119657603668105 f(x_48) + 0.4859737723954058 f(x_49)
   + 0.6535500833081798 f(x_50) + 0.544346879126792 f(x_51)
   + 0.7465056714238669 f(x_52) + 0.4693675375371864 f(x_53)
   + 0.7318559595676759 f(x_54) + 0.4052592203273793 f(x_55)
   + 0.6422532838926105 f(x_56) + 0.3327388275351779 f(x_57)
   + 0.5972701315725104 f(x_58) + 0.3927059872425281 f(x_59)
   + 0.502623994901007 f(x_60) + 0.618209177659833 f(x_61)
   + 0.2722448108263401 f(x_62) + 0.710117777199152 f(x_63)
   + 0.6876266224164995 f(x_64) + 0.4374864419750285 f(x_65)
   + 0.5447474822001412 f(x_66) + 0.4370486924706665 f(x_67)
   + 0.6075415709684153 f(x_68) + 0.5849161565552212 f(x_69)
   + 0.4333634998758172 f(x_70) + 0.4391818167874532 f(x_71)
   + 0.6246294855529169 f(x_72) + 0.3399745106719534 f(x_73)
   + 0.7410191474883863 f(x_74) + 0.7483176577699615 f(x_75)
   + 0.619854776622793 f(x_76) + 0.2556408065357 f(x_77)
   + 0.4086057836572504 f(x_78) + 0.6431120892210545 f(x_79)
   + 0.4502670801669156 f(x_80) + 0.4963145769947327 f(x_81)
   + 0.2698402324918752 f(x_82) + 0.7483258236539974 f(x_83)
   + 0.6538937552102808 f(x_84) + 0.6494791542340022 f(x_85)
   + 0.5164515353960729 f(x_86) + 0.5854667526501982 f(x_87)
   + 0.2686837339918283 f(x_88) + 0.6267194269350241 f(x_89)
   + 0.7367642562399179 f(x_90) + 0.5999175178947386 f(x_91)
   + 0.4448956224134639 f(x_92) + 0.2692878078996425 f(x_93)
   + 0.6889957375410429 f(x_94) + 0.3049067756653062 f(x_95)
   + 0.4718286990212068 f(x_96) + 0.6687930931766827 f(x_97)
   + 0.3214747437829327 f(x_98) + 0.4634579519994161 f(x_99)
Subject To
 R0: x_0 + x_1 + x_2 + x_3 + x_4 + x_5 + x_6 + x_7 + x_8 + x_9 + x_10
   + x_11 + x_12 + x_13 + x_14 + x_15 + x_16 + x_17 + x_18 + x_19 + x_20
   + x_21 + x_22 + x_23 + x_24 + x_25 + x_26 + x_27 + x_28 + x_29 + x_30
   + x_31 + x_32 + x_33 + x_34 + x_35 + x_36 + x_37 + x_38 + x_39 + x_40
   + x_41 + x_42 + x_43 + x_44 + x_45 + x_46 + x_47 + x_48 + x_49 + x_50
   + x_51 + x_52 + x_53 + x_54 + x_55 + x_56 + x_57 + x_58 + x_59 + x_60
   + x_61 + x_62 + x_63 + x_64 + x_65 + x_66 + x_67 + x_68 + x_69 + x_70
   + x_71 + x_72 + x_73 + x_74 + x_75 + x_76 + x_77 + x_78 + x_79 + x_80
   + x_81 + x_82 + x_83 + x_84 + x_85 + x_86 + x_87 + x_88 + x_89 + x_90
   + x_91 + x_92 + x_93 + x_94 + x_95 + x_96 + x_97 + x_98 + x_99 = 5
Bounds
 x_0 <= 5
 x_1 <= 5
 x_2 <= 5
 x_3 <= 5
 x_4 <= 5
 x_5 <= 5
 x_6 <= 5
 x_7 <= 5
 x_8 <= 5
 x_9 <= 5
 x_10 <= 5
 x_11 <= 5
 x_12 <= 5
 x_13 <= 5
 x_14 <= 5
 x_15 <= 5
 x_16 <= 5
 x_17 <= 5
 x_18 <= 5
 x_19 <= 5
 x_20 <= 5
 x_21 <= 5
 x_22 <= 5
 x_23 <= 5
 x_24 <= 5
 x_25 <= 5
 x_26 <= 5
 x_27 <= 5
 x_28 <= 5
 x_29 <= 5
 x_30 <= 5
 x_31 <= 5
 x_32 <= 5
 x_33 <= 5
 x_34 <= 5
 x_35 <= 5
 x_36 <= 5
 x_37 <= 5
 x_38 <= 5
 x_39 <= 5
 x_40 <= 5
 x_41 <= 5
 x_42 <= 5
 x_43 <= 5
 x_44 <= 5
 x_45 <= 5
 x_46 <= 5
 x_47 <= 5
 x_48 <= 5
 x_49 <= 5
 x_50 <= 5
 x_51 <= 5
 x_52 <= 5
 x_53 <= 5
 x_54 <= 5
 x_55 <= 5
 x_56 <= 5
 x_57 <= 5
 x_58 <= 5
 x_59 <= 5
 x_60 <= 5
 x_61 <= 5
 x_62 <= 5
 x_63 <= 5
 x_64 <= 5
 x_65 <= 5
 x_66 <= 5
 x_67 <= 5
 x_68 <= 5
 x_69 <= 5
 x_70 <= 5
 x_71 <= 5
 x_72 <= 5
 x_73 <= 5
 x_74 <= 5
 x_75 <= 5
 x_76 <= 5
 x_77 <= 5
 x_78 <= 5
 x_79 <= 5
 x_80 <= 5
 x_81 <= 5
 x_82 <= 5
 x_83 <= 5
 x_84 <= 5
 x_85 <= 5
 x_86 <= 5
 x_87 <= 5
 x_88 <= 5
 x_89 <= 5
 x_90 <= 5
 x_91 <= 5
 x_92 <= 5
 x_93 <= 5
 x_94 <= 5
 x_95 <= 5
 x_96 <= 5
 x_97 <= 5
 x_98 <= 5
 x_99 <= 5
Generals
 x_0 x_1 x_2 x_3 x_4 x_5 x_6 x_7 x_8 x_9 x_10 x_11 x_12 x_13 x_14 x_15 x_16
 x_17 x_18 x_19 x_20 x_21 x_22 x_23 x_24 x_25 x_26 x_27 x_28 x_29 x_30 x_31
 x_32 x_33 x_34 x_35 x_36 x_37 x_38 x_39 x_40 x_41 x_42 x_43 x_44 x_45 x_46
 x_47 x_48 x_49 x_50 x_51 x_52 x_53 x_54 x_55 x_56 x_57 x_58 x_59 x_60 x_61
 x_62 x_63 x_64 x_65 x_66 x_67 x_68 x_69 x_70 x_71 x_72 x_73 x_74 x_75 x_76
 x_77 x_78 x_79 x_80 x_81 x_82 x_83 x_84 x_85 x_86 x_87 x_88 x_89 x_90 x_91
 x_92 x_93 x_94 x_95 x_96 x_97 x_98 x_99
General Constraints
 constr_x_0: f(x_0) = POW ( x_0 ^ 0.8333333333333334 )
 constr_x_1: f(x_1) = POW ( x_1 ^ 0.8333333333333334 )
 constr_x_2: f(x_2) = POW ( x_2 ^ 0.8333333333333334 )
 constr_x_3: f(x_3) = POW ( x_3 ^ 0.8333333333333334 )
 constr_x_4: f(x_4) = POW ( x_4 ^ 0.8333333333333334 )
 constr_x_5: f(x_5) = POW ( x_5 ^ 0.8333333333333334 )
 constr_x_6: f(x_6) = POW ( x_6 ^ 0.8333333333333334 )
 constr_x_7: f(x_7) = POW ( x_7 ^ 0.8333333333333334 )
 constr_x_8: f(x_8) = POW ( x_8 ^ 0.8333333333333334 )
 constr_x_9: f(x_9) = POW ( x_9 ^ 0.8333333333333334 )
 constr_x_10: f(x_10) = POW ( x_10 ^ 0.8333333333333334 )
 constr_x_11: f(x_11) = POW ( x_11 ^ 0.8333333333333334 )
 constr_x_12: f(x_12) = POW ( x_12 ^ 0.8333333333333334 )
 constr_x_13: f(x_13) = POW ( x_13 ^ 0.8333333333333334 )
 constr_x_14: f(x_14) = POW ( x_14 ^ 0.8333333333333334 )
 constr_x_15: f(x_15) = POW ( x_15 ^ 0.8333333333333334 )
 constr_x_16: f(x_16) = POW ( x_16 ^ 0.8333333333333334 )
 constr_x_17: f(x_17) = POW ( x_17 ^ 0.8333333333333334 )
 constr_x_18: f(x_18) = POW ( x_18 ^ 0.8333333333333334 )
 constr_x_19: f(x_19) = POW ( x_19 ^ 0.8333333333333334 )
 constr_x_20: f(x_20) = POW ( x_20 ^ 0.8333333333333334 )
 constr_x_21: f(x_21) = POW ( x_21 ^ 0.8333333333333334 )
 constr_x_22: f(x_22) = POW ( x_22 ^ 0.8333333333333334 )
 constr_x_23: f(x_23) = POW ( x_23 ^ 0.8333333333333334 )
 constr_x_24: f(x_24) = POW ( x_24 ^ 0.8333333333333334 )
 constr_x_25: f(x_25) = POW ( x_25 ^ 0.8333333333333334 )
 constr_x_26: f(x_26) = POW ( x_26 ^ 0.8333333333333334 )
 constr_x_27: f(x_27) = POW ( x_27 ^ 0.8333333333333334 )
 constr_x_28: f(x_28) = POW ( x_28 ^ 0.8333333333333334 )
 constr_x_29: f(x_29) = POW ( x_29 ^ 0.8333333333333334 )
 constr_x_30: f(x_30) = POW ( x_30 ^ 0.8333333333333334 )
 constr_x_31: f(x_31) = POW ( x_31 ^ 0.8333333333333334 )
 constr_x_32: f(x_32) = POW ( x_32 ^ 0.8333333333333334 )
 constr_x_33: f(x_33) = POW ( x_33 ^ 0.8333333333333334 )
 constr_x_34: f(x_34) = POW ( x_34 ^ 0.8333333333333334 )
 constr_x_35: f(x_35) = POW ( x_35 ^ 0.8333333333333334 )
 constr_x_36: f(x_36) = POW ( x_36 ^ 0.8333333333333334 )
 constr_x_37: f(x_37) = POW ( x_37 ^ 0.8333333333333334 )
 constr_x_38: f(x_38) = POW ( x_38 ^ 0.8333333333333334 )
 constr_x_39: f(x_39) = POW ( x_39 ^ 0.8333333333333334 )
 constr_x_40: f(x_40) = POW ( x_40 ^ 0.8333333333333334 )
 constr_x_41: f(x_41) = POW ( x_41 ^ 0.8333333333333334 )
 constr_x_42: f(x_42) = POW ( x_42 ^ 0.8333333333333334 )
 constr_x_43: f(x_43) = POW ( x_43 ^ 0.8333333333333334 )
 constr_x_44: f(x_44) = POW ( x_44 ^ 0.8333333333333334 )
 constr_x_45: f(x_45) = POW ( x_45 ^ 0.8333333333333334 )
 constr_x_46: f(x_46) = POW ( x_46 ^ 0.8333333333333334 )
 constr_x_47: f(x_47) = POW ( x_47 ^ 0.8333333333333334 )
 constr_x_48: f(x_48) = POW ( x_48 ^ 0.8333333333333334 )
 constr_x_49: f(x_49) = POW ( x_49 ^ 0.8333333333333334 )
 constr_x_50: f(x_50) = POW ( x_50 ^ 0.8333333333333334 )
 constr_x_51: f(x_51) = POW ( x_51 ^ 0.8333333333333334 )
 constr_x_52: f(x_52) = POW ( x_52 ^ 0.8333333333333334 )
 constr_x_53: f(x_53) = POW ( x_53 ^ 0.8333333333333334 )
 constr_x_54: f(x_54) = POW ( x_54 ^ 0.8333333333333334 )
 constr_x_55: f(x_55) = POW ( x_55 ^ 0.8333333333333334 )
 constr_x_56: f(x_56) = POW ( x_56 ^ 0.8333333333333334 )
 constr_x_57: f(x_57) = POW ( x_57 ^ 0.8333333333333334 )
 constr_x_58: f(x_58) = POW ( x_58 ^ 0.8333333333333334 )
 constr_x_59: f(x_59) = POW ( x_59 ^ 0.8333333333333334 )
 constr_x_60: f(x_60) = POW ( x_60 ^ 0.8333333333333334 )
 constr_x_61: f(x_61) = POW ( x_61 ^ 0.8333333333333334 )
 constr_x_62: f(x_62) = POW ( x_62 ^ 0.8333333333333334 )
 constr_x_63: f(x_63) = POW ( x_63 ^ 0.8333333333333334 )
 constr_x_64: f(x_64) = POW ( x_64 ^ 0.8333333333333334 )
 constr_x_65: f(x_65) = POW ( x_65 ^ 0.8333333333333334 )
 constr_x_66: f(x_66) = POW ( x_66 ^ 0.8333333333333334 )
 constr_x_67: f(x_67) = POW ( x_67 ^ 0.8333333333333334 )
 constr_x_68: f(x_68) = POW ( x_68 ^ 0.8333333333333334 )
 constr_x_69: f(x_69) = POW ( x_69 ^ 0.8333333333333334 )
 constr_x_70: f(x_70) = POW ( x_70 ^ 0.8333333333333334 )
 constr_x_71: f(x_71) = POW ( x_71 ^ 0.8333333333333334 )
 constr_x_72: f(x_72) = POW ( x_72 ^ 0.8333333333333334 )
 constr_x_73: f(x_73) = POW ( x_73 ^ 0.8333333333333334 )
 constr_x_74: f(x_74) = POW ( x_74 ^ 0.8333333333333334 )
 constr_x_75: f(x_75) = POW ( x_75 ^ 0.8333333333333334 )
 constr_x_76: f(x_76) = POW ( x_76 ^ 0.8333333333333334 )
 constr_x_77: f(x_77) = POW ( x_77 ^ 0.8333333333333334 )
 constr_x_78: f(x_78) = POW ( x_78 ^ 0.8333333333333334 )
 constr_x_79: f(x_79) = POW ( x_79 ^ 0.8333333333333334 )
 constr_x_80: f(x_80) = POW ( x_80 ^ 0.8333333333333334 )
 constr_x_81: f(x_81) = POW ( x_81 ^ 0.8333333333333334 )
 constr_x_82: f(x_82) = POW ( x_82 ^ 0.8333333333333334 )
 constr_x_83: f(x_83) = POW ( x_83 ^ 0.8333333333333334 )
 constr_x_84: f(x_84) = POW ( x_84 ^ 0.8333333333333334 )
 constr_x_85: f(x_85) = POW ( x_85 ^ 0.8333333333333334 )
 constr_x_86: f(x_86) = POW ( x_86 ^ 0.8333333333333334 )
 constr_x_87: f(x_87) = POW ( x_87 ^ 0.8333333333333334 )
 constr_x_88: f(x_88) = POW ( x_88 ^ 0.8333333333333334 )
 constr_x_89: f(x_89) = POW ( x_89 ^ 0.8333333333333334 )
 constr_x_90: f(x_90) = POW ( x_90 ^ 0.8333333333333334 )
 constr_x_91: f(x_91) = POW ( x_91 ^ 0.8333333333333334 )
 constr_x_92: f(x_92) = POW ( x_92 ^ 0.8333333333333334 )
 constr_x_93: f(x_93) = POW ( x_93 ^ 0.8333333333333334 )
 constr_x_94: f(x_94) = POW ( x_94 ^ 0.8333333333333334 )
 constr_x_95: f(x_95) = POW ( x_95 ^ 0.8333333333333334 )
 constr_x_96: f(x_96) = POW ( x_96 ^ 0.8333333333333334 )
 constr_x_97: f(x_97) = POW ( x_97 ^ 0.8333333333333334 )
 constr_x_98: f(x_98) = POW ( x_98 ^ 0.8333333333333334 )
 constr_x_99: f(x_99) = POW ( x_99 ^ 0.8333333333333334 )
End
